45

 0   0   0   0   0   0   0   0   0   0   0   0   0   0   0   0   0   0   0   0   0   0  25  25  25  25  25  25  25  25  31  31  31  31  31  31  31  31  20  15  12  20  11   1  19  
 0   0   0   0   0   0   0   0   0   0   0   0   0   0   0   0   0   0   0   0   0   0  25  25  25  25  25  25  25  25  31  31  31  31  31  31  31  31   3   4  14  11   4   6  19  
 0   0   0   0   0   6   0   0   0   0   0   0   0   0   0   0   0   0   0   0   0   0  25  25  25  25  25  25  25  25  31  31  31  31  31  31  31  31   8  13   5  18   3   3  11  
 0   0   0   0   0   0   0   0   0   0   0   0   0   0   0   0   0   0   0   0   0   0  25  25  25  25  25  25  25  25  31  31  31  31  31  31  31  31   7   7  15  17  18   2  15  
 0   0   0   0   0   0   0   0   0   0   0   0   0   0   0   0   0   0   0   2   0   0  25  25  25  25  25  25  25  25  31  31  31  31  31   2  31  31   8   7   3  12   2  15   3  
 0   0   6   0   0   0   0   0   0   0   0   0   0   0   0   0   0   0   0   0   0   0  25  25  25  25  25  25  25  25  31  31  31  31  31  31  31  31  16  14   5  14   3  10   7  
 0   0   0   0   0   0   0   0   0   0   0   0   0   0   0   0   0   0   0   0   0   0  25  25  25  25  25  25  25  25  31  31  31  31  31  31  31  31  13   9  13   4  15  18  14  
 0   0   0   0   0   0   0   0   9   0   0   0   0   0   0   0   0   0   0   0   0   0  25  25  25  25  25  25  25  25  31  31  31  31  31  31  31  31  10  16  17   7   9  19  20  
 0   0   0   0   0   0   0   9   0   0   0   0   0   0   0   0   0   0   0   0   0   0  30  30  30   6  30  30  30  30  14  17   9  20  17  13  20  15  30  30  30  30  30  30  30  
 0   0   0   0   0   0   0   0   0   0   0   0   0   0   0   0   0   0   0   0   0   0   1  30  30  30  30  30  30  30   2  15  16   3  14   5  10  17  30  30  30  30  30  30  30  
 0   0   0   0   0   0   0   0   0   0   0   0   0   0   0   0   0   0   3   0   0   0  30  30  30  30  30  30  30  30   6   3   1  10  14   5   4   8  30  30  30  30  30  30  30  
 0   0   0   0   0   0   0   0   0   0   0   0   0   0   0   0   0   0   0   0   0   0  30  30  30  30  30  30  30  30  15  19   4   1  16  17  18   2  30  30  30  30  30  30  30  
 0   0   0   0   0   0   0   0   0   0   0   0   0   0   0   0   0   0   0   0   0   0  30  30  30  30  30  30  30  30   4   4   5   6   4  19   9   2  30  30  30  30  30  30  30  
 0   0   0   0   0   0   0   0   0   0   0   0   0   0   0   0   0   0   0   0   0   0  30  30  30  30  30  30  30  30  13   7   1  19  17  17  17  13  30  30  30  30  30  30  30  
 0   0   0   0   0   0   0   0   0   0   0   0   0   0   0   0   0   0   0   0   0   7  30  30  30  30  30  30  30  30  15  11  20   2   5  14   7   7  30  30  30  30   5  30  30  
 0   0   0   0   0   0   0   0   0   0   0   0   0   0   0   0   0   0   0   0   0   0  15  11  17  20  19   2   1  19  31  31  31  31  31  31  31  31  27  27  27  27  27  27  27  
 0   0   0   0   0   0   0   0   0   0   0   0   0   0   0   0   0   0   0   0   0   0  12  16   8  19   5  14   5   9   4  31  31  31  31  31  31  31  27  27  27  27  27  27   1  
 0   0   0   0   0   0   0   0   0   0   0   0   0   0   0   0   0   0   0   0   0   0  10   9   6  12   8  16   5  17  31  31  31  31  31  31  31  31  27  27  27  27  27  27  27  
 0   0   0   0   0   0   0   0   0   0   3   0   0   0   0   0   0   0   0   0   0   0  16   8  10  11  19   1  16   1  31  31  31  31  31  31   3  31  27  27  27  27  27  27  27  
 0   0   0   0   2   0   0   0   0   0   0   0   0   0   0   0   0   0   0   0   0   0  14  11   7   3  15  17   2   5  31  31  31  31   8  31  31  31  27  27  27  27  27  27  27  
 0   0   0   0   0   0   0   0   0   0   0   0   0   0   0   0   0   0   0   0   0   0  14  16  19  10   2   8   7  20  31  31  31  31  31  31  31  31  27  27  27  27  27  27  27  
 0   0   0   0   0   0   0   0   0   0   0   0   0   0   7   0   0   0   0   0   0   0   7   3   5  12  19  17  11  18  31  31  31  31  31  31  31  31  27  27  27  27  27  27  27  
25  25  25  25  25  25  25  25  30   1  30  30  30  30  30   8   7  10  13  11  16   3   0   0   0   0   0   0   0   0   0   0   0   0   0   0   0   0   0   0   0   0   0   0   0  
25  25  25  25  25  25  25  25  30  30  30  30  30  30  30  12   7  19   8   7  19   3   0   0   0   0   0   0   0   0   9   0   0   0   0   0   0   0   0   0   0   0   0   0   0  
25  25  25  25  25  25  25  25  30  30  30  30  30  30  30  10  11   4  11   5   8   9   0   0   0   0   0   0   0   0   0   0   0   0   0   0   0   0   0   0   0   0   0   0   0  
25  25  25  25  25  25  25  25   6  30  30  30  30  30  30   4  20   1   6   7   5   3   0   0   0   0   0   0   0   0   0   0   0   0   0   0   0   0   0   0   0   0   0   0   0  
25  25  25  25  25  25  25  25  30  30  30  30  30  30  30   6  18  13   2   3  13  17   0   0   0   0   0   0   0   0   0   0   0   0   0   0   0   0   0   3   0   0   0   0   0  
25  25  25  25  25  25  25  25  30  30  30  30  30  30  30   3   6  14  20   3   6  12   0   0   0   0   0   0   0   0   0   0   0   0   0   0   0   0   0   0   0   0   0   0   0  
25  25  25  25  25  25  25  25  30  30  30  30  30  30  30  15   5  11  19   2   8  18   0   0   0   0   0   0   0   0   0   0   0   4   0   0   0   0   0   0   0   0   0   0   0  
25  25  25  25  25  25  25  25  30  30  30  30  30  30  30   6  11  17   2  18  10  15   0   0   0   0   0   0   0   0   0   0   0   0   0   0   0   0   0   0   0   0   0   0   0  
31  31  31  31  31  31  31  31  12  14  15   3   9  20  20  31   4  31  31  31  31  31   0   9   0   0   0   0   0   0   0   0   0   0   0   8   0   0   0   0   0   0   0   0   0  
31  31  31  31  31  31  31  31  17  18   7   1   6   7   8  31  31  31  31  31  31  31   0   0   0   0   0   0   0   0   0   0   0   1   0   0   0   0   0   0   0   0   0   0   0  
31  31  31  31  31  31  31  31   9  15   3  10  14  17   1  31  31  31  31  31  31  31   0   0   0   0   0   0   0   0   0   0   0   0   0   0   0   0   0   0   0   0   0   0   0  
31  31  31  31  31  31  31  31   3   4   4   9   2  16  13  31  31  31  31  31  31  31   0   0   0   0   0   0   4   0   0   1   0   0   0   0   0   0   0   0   0   0   0   0   0  
31  31  31  31  31  31  31  31  18   8  19   1   6  20  19  31  31  31  31   8  31  31   0   0   0   0   0   0   0   0   0   0   0   0   0   0   0   0   0   0   0   0   0   1   0  
31  31  31  31   2  31  31  31  11   4  19   1  13  19  18  31  31  31  31  31  31  31   0   0   0   0   0   0   0   0   8   0   0   0   0   0   0   0   0   0   0   0   0   0   4  
31  31  31  31  31  31  31  31   3  14   5   3   7  17   2  31  31  31   3  31  31  31   0   0   0   0   0   0   0   0   0   0   0   0   0   0   0   0   0   0   0   0   0   0   0  
31  31  31  31  31  31  31  31  17  12  10   2  14   2  10  31  31  31  31  31  31  31   0   0   0   0   0   0   0   0   0   0   0   0   0   0   0   0   0   0   0   0   0   0   0  
14  14   6  17   7  19  20  11  30  30  30  30  30  30  30  27  27  27  27  27  27  27   0   0   0   0   0   0   0   0   0   0   0   0   0   0   0   0   0   0   0   0   0   0   0  
12   9  19  15  15   3   5   8  30  30  30  30  30  30  30  27  27  27  27  27  27  27   0   0   0   0   3   0   0   0   0   0   0   0   0   0   0   0   0   0   0   0   0   0   0  
19  13   2  12   7  18  17   5  30  30  30  30  30  30  30  27  27  27  27  27  27  27   0   0   0   0   0   0   0   0   0   0   0   0   0   0   0   0   0   0   0   0   0   0   0  
 1  12  12  10  13   2   4  13  30  30  30  30  30  30  30  27  27  27  27  27  27  27   0   0   0   0   0   0   0   0   0   0   0   0   0   0   0   0   0   0   0   0   0   0   0  
 7   4   3  17   6  15  20   1  30  30  30  30  30  30   5  27  27  27  27  27  27  27   0   0   0   0   0   0   0   0   0   0   0   0   0   0   0   0   0   0   0   0   0   0   0  
 8  20  17  15  16  17  15  14  30  30  30  30  30  30  30  27  27  27  27  27  27  27   0   0   0   0   0   0   0   0   0   0   0   0   1   0   0   0   0   0   0   0   0   0   0  
 4   4   3   6   5   2  17  10  30  30  30  30  30  30  30  27   1  27  27  27  27  27   0   0   0   0   0   0   0   0   0   0   0   0   0   4   0   0   0   0   0   0   0   0   0  

 0   5   8  17  19  13  11  19  31  31  31  31  31  31  31  25  25  25  25  25  25  25   0   0   0   0   0   0   0   0   0   0   0   0   0   0   0   0   0   0   0   0   0   0   0  
 4   0  18   6  13   4   9   1  31  31  31  31  31  31  31  25  25  25  25  25  25  25   0   6   0   0   0   0   0   0   0   0   0   0   0   0   0   0   3   0   0   0   0   0   0  
14   6   0  17  11   8   7  20  31  31  31  31  31  31  31  25  25  25  25  25  25  25   0   0   0   0   0   0   0   0   0   0   0   0   0   0   0   0   0   0   0   0   0   0   0  
20  14  14   0   6   7  11  13  31  31  31  31  31  31  31  25  25  25  25   6  25  25   1   0   0   0   0   7   0   0   0   0   6   0   0   0   0   0   0   0   0   0   0   0   0  
12  13   2  20   0  13  15   5  31  31  31  31  31  31   7  25  25  25  25  25  25  25   0   0   0   0   0   0   0   0   0   0   0   0   0   0   0   0   0   0   0   0   0   0   0  
 9   4  13   6  17   0  17   4  31  31  31  31  31  31  31  25  25  25  25  25   6  25   0   0   0   0   0   0   0   0   0   0   0   0   0   0   0   0   0   0   0   0   0   0   0  
16   6  14   4   5  19   0  13  31  31  31  31  31  31  31  25  25  25  25  25  25  25   0   0   8   0   0   0   0   0   0   0   0   0   0   0   0   0   0   0   0   0   0   0   0  
 7  10  15  11  10  18  15   0  31  31  31  31  31  31  31  25  25  25  25  25  25  25   2   0   0   0   0   0   0   0   0   0   0   0   0   0   0   0   0   0   0   0   0   0   6  
31  31  31  31  31  31  31  31   0  18   8   6  14   2  14  25  25  25  25  25  25  25   0   0   0   0   0   0   2   0   0   0   0   0   0   0   0   0   0   0   0   0   0   0   0  
31  31  31  31  31  31  31  31  12   0   3   5  20  11  20  25  25  25  25  25  25   1   0   0   0   0   0   0   0   0   0   0   0   0   0   0   0   0   0   0   0   0   0   0   0  
31  31  31  31  31  31  31  31  19   3   0  10  12  15  17  25  25  25  25  25  25  25   0   0   0   0   0   0   0   0   0   0   0   0   0   0   0   0   0   0   0   0   0   0   0  
31  31  31  31  31  31  31  31   3   5   2   0   8  17   1  25  25  25  25  25  25  25   0   0   0   0   0   0   0   0   0   0   0   0   0   7   0   0   0   0   0   0   0   0   0  
31  31  31  31  31  31  31  31  13   4  13   4   0   7   4   2  25   7  25  25  25  25   0   0   0   0   0   0   0   0   0   0   0   0   0   0   0   0   0   5   0   0   0   0   0  
31  31  31  31  31  31  31  31   2  16  19   1   4   0   4  25  25  25  25  25  25  25   0   0   0   0   0   0   0   0   0   0   9   0   0   0   7   0   0   0   0   0   0   0   0  
31  31  31  31   7  31  31  31  10  20   3  13   4   1   0  25   6  25  25  25  25  25   0   0   0   0   0   0   0   0   0   0   0   0   0   0   0   0   0   0   0   0   0   0   0  
25  25  25  25  25  25  25  25  25  25  25  25   2  25  25   0   7   3   4  15   8   2   0   0   0   6   0   0   0   0   9   0   0   0   0   0   0   0   0   0   0   0   0   0   0  
25  25  25  25  25  25  25  25  25  25  25  25  25  25   6   9   0  12   8   1   1   4   0   0   0   0   0   0   0   0   0   0   0   0   0   0   0   0   0   0   0   0   0   0   0  
25  25  25  25  25  25  25  25  25  25  25  25   7  25  25   3   2   0  12   2   3   2   0   0   0   0   0   0   1   0   0   0   0   0   0   0   0   0   0   0   0   0   0   0   0  
25  25  25  25  25  25  25  25  25  25  25  25  25  25  25   2  16   8   0  17   5  10   0   0   0   0   0   0   0   0   0   0   0   0   0   0   0   0   0   0   2   0   0   0   0  
25  25  25   6  25  25  25  25  25  25  25  25  25  25  25   8  13  13  19   0   2  18   0   1   0   0   0   0   8   8   0   0   0   0   0   0   0   0   0   0   0   0   0   0   0  
25  25  25  25  25   6  25  25  25  25  25  25  25  25  25   5  18  18  18  14   0   7   0   0   0   0   0   0   3   0   0   2   0   0   0   0   0   0   0   5   0   7   0   0   0  
25  25  25  25  25  25  25  25  25   1  25  25  25  25  25   9   4   9  10  10   1   0   0   0   0   0   0   0   0   0   0   0   0   0   0   0   3   0   0   0   0   0   0   0   0  
 0   0   0   1   0   0   0   2   0   0   0   0   0   0   0   0   0   0   0   0   0   0   3   5   9  12   6  20   3  13   2  27   8  27  27  27  27  27   3   3  30   9  30  30  30  
 0   6   0   0   0   0   0   0   0   0   0   0   0   0   0   0   0   0   0   1   0   0   2  14  14  13  12   8  11   9  27  27  27  27  27  27  27  27  30  30  30  30  30  30  30  
 0   0   0   0   0   0   8   0   0   0   0   0   0   0   0   0   0   0   0   0   0   0   9   8  20  16  10  13  15  18  27  27  27   4  27  27  27  27  30  30  30  30   2  30  30  
 0   0   0   0   0   0   0   0   0   0   0   0   0   0   0   6   0   0   0   0   0   0   8   9  15   1  18   4  10  17  27  27  27  27  27  27  27  27  30  30  30  30  30  30  30  
 0   0   0   0   0   0   0   0   0   0   0   0   0   0   0   0   0   0   0   0   0   0  19  20  15  18   6  13   7  13  27  27  27  27  27  27  27  27   9  30  30  30  30  30  30  
 0   0   0   7   0   0   0   0   0   0   0   0   0   0   0   0   0   0   0   0   0   0   2   8  13   2  11  19  13   5  27  27  27  27  27  27  27  27  30  30  30  30  30  30  30  
 0   0   0   0   0   0   0   0   2   0   0   0   0   0   0   0   0   1   0   8   3   0  15  13  11   3   8  15  11  18  27  27  27  27  27  27  27  27  30  30  30  30  30   8  30  
 0   0   0   0   0   0   0   0   0   0   0   0   0   0   0   0   0   0   0   8   0   0  12   8   4  17   6  11  10  16  27  27  27  27  27  27  27  27  30  30  30  30   8  30  30  
 0   0   0   0   0   0   0   0   0   0   0   0   0   0   0   9   0   0   0   0   0   0   2  27  27  27  27  27  27  27  14  18   9   4  19  18   7  18  30  30  30  30  30  30  30  
 0   0   0   0   0   0   0   0   0   0   0   0   0   0   0   0   0   0   0   0   2   0  27  27  27  27  27  27  27  27  16  18  20   1   3   9  17   7  30  30  30  30  30  30  30  
 0   0   0   6   0   0   0   0   0   0   0   0   0   9   0   0   0   0   0   0   0   0   8  27  27  27  27  27  27  27  13  11  20   9  20  15  11  11  30  30  30  30  30  30  30  
 0   0   0   0   0   0   0   0   0   0   0   0   0   0   0   0   0   0   0   0   0   0  27  27   4  27  27  27  27  27   4  10   9  18  19  15   7   6  30  30  30  30  30  30  30  
 0   0   0   0   0   0   0   0   0   0   0   0   0   0   0   0   0   0   0   0   0   0  27  27  27  27  27  27  27  27   3  13  10  16   4   3   1  16  30  30  30  30  30  30  30  
 0   0   0   0   0   0   0   0   0   0   0   7   0   0   0   0   0   0   0   0   0   0  27  27  27  27  27  27  27  27  19   9  10  15  20   7   9   3  30  30  30  30  30  30  30  
 0   0   0   0   0   0   0   0   0   0   0   0   0   7   0   0   0   0   0   0   0   3  27  27  27  27  27  27  27  27  11  12  17   4  19  15  13   4  30   8  30  30   5  30   4  
 0   0   0   0   0   0   0   0   0   0   0   0   0   0   0   0   0   0   0   0   0   0  27  27  27  27  27  27  27  27  11  12   1   5  13   3  20   4  30  30   3  30  30  30  30  
 0   3   0   0   0   0   0   0   0   0   0   0   0   0   0   0   0   0   0   0   0   0   3  30  30  30   9  30  30  30  30  30  30  30  30  30  30  30   8  19   9  15   1  14  17  
 0   0   0   0   0   0   0   0   0   0   0   0   5   0   0   0   0   0   0   0   5   0   3  30  30  30  30  30  30  30  30  30  30  30  30  30   8  30  14  20  10  13  10  17   5  
 0   0   0   0   0   0   0   0   0   0   0   0   0   0   0   0   0   0   2   0   0   0  30  30  30  30  30  30  30  30  30  30  30  30  30  30  30   3  20  19   1   5   5   5  10  
 0   0   0   0   0   0   0   0   0   0   0   0   0   0   0   0   0   0   0   0   7   0   9  30  30  30  30  30  30  30  30  30  30  30  30  30  30  30  18  13  11   9  13  17   9  
 0   0   0   0   0   0   0   0   0   0   0   0   0   0   0   0   0   0   0   0   0   0  30  30   2  30  30  30  30   8  30  30  30  30  30  30   5  30  13   4   5  17   1   2   3  
 0   0   0   0   0   0   0   0   0   0   0   0   0   0   0   0   0   0   0   0   0   0  30  30  30  30  30  30   8  30  30  30  30  30  30  30  30  30   4   9  19   4   9   3  11  
 0   0   0   0   0   0   0   6   0   0   0   0   0   0   0   0   0   0   0   0   0   0  30  30  30  30  30  30  30  30  30  30  30  30  30  30   4  30   5  15  18   9   8   7   7  
